
length = 10;
width = 8;

ntypes = 4;
number = [2,2,2,3];
config = [{1,2},{3,4},{5,6},{7}];

nshapes = 7;
shape = [{1},{2}, {3},{4},{5},{6},{7}];

nroff = 7;
rectoff = [| 0,0,2,5 | 0,0,5,2

           | 0,0,3,4 | 0,0,4,3

           | 0,0,1,3 | 0,0,3,1
 
           | 0,0,1,1
 |]; 


mist =   array1d(LENGTH,[0,0,3,3,3,1,1,2,2,2]);
arrow  = array1d(WIDTH,[8,1,4,10,12,7,1,5]);
price = [ 5, 6, 7, 2 ];
budget = 40;
stage = E;
